78994
57 167 105 148 62 29 161 168 141 126 17 61 12 171 128 73 189 183 119 65 127 150 95 104 44 14 69 53 143 94 11 97 174 13 134 130 48 89 16 178 49 84 39 82 88 153 60 47 165 113 98 146 198 30 79 160 136 175 149 193 166 92 145 191 23 142 27 41 133 59 169 120 81 1 151 110 51 112 147 52 4 34 37 56 184 106 91 22 18 162 182 176 116 54 71 137 199 96 190 63 121 103 0 43 125 90 55 3 135 196 192 108 7 194 181 144 19 67 111 158 8 64 86 26 31 40 107 172 20 70 139 32 131 77 156 42 129 159 195 163 124 187 118 24 5 9 28 115 132 38 180 138 155 99 185 76 68 164 74 93 101 179 15 102 109 177 85 21 123 87 35 33 58 114 117 173 46 25 78 188 45 36 140 80 186 2 66 10 157 83 75 197 154 6 50 170 100 72 152 122 
